letting n_nurses=25
letting n_days=7
letting n_shift_types=4
letting max_covers=12
letting t_covers=87
letting covers=[11,3,2,0,3,12,3,0,11,1,4,0,4,0,2,0,5,3,0,0,2,4,12,0,2,3,0,0]
letting prefes=[2,2,2,2,1,3,1,3,1,3,1,3,1,3,1,3,1,3,1,3,2,2,2,2,1,3,1,3,2,2,2,2,2,3,2,3,1,3,1,3,1,3,1,3,1,3,1,3,2,2,2,2,1,3,1,3,2,2,1,1,2,1,2,1,1,1,1,1,1,1,1,1,1,1,1,1,2,2,1,1,1,1,1,1,2,2,1,2,1,1,1,1,1,1,1,1,1,1,1,1,1,1,1,1,2,2,1,2,1,1,1,1,1,3,2,2,1,1,1,1,1,1,1,1,1,1,1,1,1,1,1,1,1,3,2,2,1,1,1,1,1,2,2,2,1,3,1,3,1,3,1,3,1,3,1,3,1,3,1,3,1,2,2,2,1,3,1,3,1,2,2,2,1,3,1,3,1,3,1,3,1,3,1,3,1,3,1,3,1,2,2,2,1,3,1,3,2,2,2,2,1,3,1,3,1,3,1,3,1,3,1,3,1,3,1,3,2,2,2,2,1,3,1,3,2,2,2,2,1,3,1,3,1,3,1,3,1,3,1,3,1,3,1,3,2,2,2,2,1,3,1,3,2,2,2,1,2,3,2,3,4,3,4,3,4,3,4,3,4,3,4,3,2,2,2,1,4,3,4,3,2,3,2,2,1,3,1,3,1,3,1,3,1,3,1,3,1,3,1,3,2,3,2,2,1,3,1,3,2,2,1,2,1,3,1,3,1,3,1,3,1,3,1,3,1,3,1,3,2,2,1,2,1,3,1,3,2,2,2,1,1,1,1,1,4,1,4,1,4,1,4,1,4,1,4,1,2,2,2,1,4,1,4,1,2,2,2,2,1,3,1,3,1,3,1,3,1,3,1,3,1,3,1,3,2,2,2,2,1,3,1,3,2,3,2,2,1,3,1,3,1,3,1,3,1,3,1,3,1,3,1,3,2,3,2,2,1,3,1,3,1,2,2,2,1,3,1,3,1,3,1,3,1,3,1,3,1,3,1,3,1,2,2,2,1,3,1,3,2,3,2,1,1,3,1,3,1,3,1,3,1,3,1,3,1,3,1,3,2,3,2,1,1,3,1,3,2,2,2,1,1,3,1,3,1,3,1,3,1,3,1,3,1,3,1,3,2,2,2,1,1,3,1,3,2,2,2,2,1,3,1,3,1,3,1,3,1,3,1,3,1,3,1,3,2,2,2,2,1,3,1,3,1,2,2,2,1,1,1,1,1,1,1,1,1,1,1,1,1,1,1,1,1,2,2,2,1,1,1,1,2,2,2,2,2,3,2,3,4,3,4,3,4,3,4,3,4,3,4,3,2,2,2,2,4,3,4,3,2,2,1,2,1,3,1,3,4,3,4,3,4,3,4,3,4,3,4,3,2,2,1,2,4,3,4,3,2,3,1,2,2,3,2,3,4,3,4,3,4,3,4,3,4,3,4,3,2,3,1,2,4,3,4,3,2,2,2,2,1,3,1,3,1,3,1,3,1,3,1,3,1,3,1,3,2,2,2,2,1,3,1,3,2,2,2,2,1,3,1,3,1,3,1,3,1,3,1,3,1,3,1,3,2,2,2,2,1,3,1,3]
letting ub =  303
